% Generated by MiniZinc 2.9.3
% Solver library: /home/icwmmarijnisse/Pumpkin/minizinc/lib
% Command line invocation: minizinc --compile --fzn ./instance.fzn --ozn ./instance.ozn --solver pumpkin ../../../../benchmarks/models/rcpsp/rcpsp.mzn ../../../../benchmarks/models/rcpsp/J60_46_4.dzn 

predicate pumpkin_cumulative(array [int] of var int: s,array [int] of int: d,array [int] of int: r,int: b);
array [1..2] of int: X_INTRODUCED_79_ = [1,-1];
array [1..60] of int: X_INTRODUCED_138_ = [5,4,7,4,8,1,6,8,3,2,7,3,1,9,8,9,8,7,2,10,10,10,3,8,4,10,3,6,6,5,2,8,9,6,4,10,2,3,5,4,1,6,5,3,3,10,9,9,4,8,3,3,10,10,4,7,2,3,5,3];
array [1..60] of int: X_INTRODUCED_139_ = [6,9,8,10,2,4,2,1,7,7,9,7,9,8,4,8,1,7,10,1,3,2,7,4,7,10,10,6,5,3,1,2,7,3,3,4,8,1,9,8,7,2,5,10,10,3,2,4,1,4,5,5,9,5,2,4,6,10,5,7];
array [1..60] of int: X_INTRODUCED_140_ = [3,10,9,2,10,4,10,3,9,9,3,7,4,10,10,7,6,1,6,3,4,4,9,7,3,8,4,3,3,3,8,1,9,7,3,10,6,8,8,5,5,1,6,3,5,5,10,5,3,9,9,1,1,4,7,10,4,5,1,5];
array [1..60] of int: X_INTRODUCED_142_ = [3,7,2,2,8,8,8,3,8,8,5,4,8,10,7,9,1,8,5,6,2,4,4,1,4,8,9,6,3,5,7,1,5,1,8,5,2,10,3,6,4,3,2,6,7,3,3,1,5,6,8,6,6,7,7,2,8,6,1,9];
array [1..60] of int: X_INTRODUCED_143_ = [5,2,9,8,4,4,9,8,1,10,6,10,2,8,6,10,6,8,6,7,7,2,2,3,9,2,3,3,8,10,8,9,7,4,3,5,8,3,7,6,8,3,3,10,3,4,10,7,9,3,7,10,4,2,8,10,5,2,7,7];
array [1..2] of int: X_INTRODUCED_146_ = [1,-1];
var 0..328: X_INTRODUCED_16_;
var 0..328: X_INTRODUCED_17_;
var 0..328: X_INTRODUCED_18_;
var 0..328: X_INTRODUCED_19_;
var 0..328: X_INTRODUCED_20_;
var 0..328: X_INTRODUCED_21_;
var 0..328: X_INTRODUCED_22_;
var 0..328: X_INTRODUCED_23_;
var 0..328: X_INTRODUCED_24_;
var 0..328: X_INTRODUCED_25_;
var 0..328: X_INTRODUCED_26_;
var 0..328: X_INTRODUCED_27_;
var 0..328: X_INTRODUCED_28_;
var 0..328: X_INTRODUCED_29_;
var 0..328: X_INTRODUCED_30_;
var 0..328: X_INTRODUCED_31_;
var 0..328: X_INTRODUCED_32_;
var 0..328: X_INTRODUCED_33_;
var 0..328: X_INTRODUCED_34_;
var 0..328: X_INTRODUCED_35_;
var 0..328: X_INTRODUCED_36_;
var 0..328: X_INTRODUCED_37_;
var 0..328: X_INTRODUCED_38_;
var 0..328: X_INTRODUCED_39_;
var 0..328: X_INTRODUCED_40_;
var 0..328: X_INTRODUCED_41_;
var 0..328: X_INTRODUCED_42_;
var 0..328: X_INTRODUCED_43_;
var 0..328: X_INTRODUCED_44_;
var 0..328: X_INTRODUCED_45_;
var 0..328: X_INTRODUCED_46_;
var 0..328: X_INTRODUCED_47_;
var 0..328: X_INTRODUCED_48_;
var 0..328: X_INTRODUCED_49_;
var 0..328: X_INTRODUCED_50_;
var 0..328: X_INTRODUCED_51_;
var 0..328: X_INTRODUCED_52_;
var 0..328: X_INTRODUCED_53_;
var 0..328: X_INTRODUCED_54_;
var 0..328: X_INTRODUCED_55_;
var 0..328: X_INTRODUCED_56_;
var 0..328: X_INTRODUCED_57_;
var 0..328: X_INTRODUCED_58_;
var 0..328: X_INTRODUCED_59_;
var 0..328: X_INTRODUCED_60_;
var 0..328: X_INTRODUCED_61_;
var 0..328: X_INTRODUCED_62_;
var 0..328: X_INTRODUCED_63_;
var 0..328: X_INTRODUCED_64_;
var 0..328: X_INTRODUCED_65_;
var 0..328: X_INTRODUCED_66_;
var 0..328: X_INTRODUCED_67_;
var 0..328: X_INTRODUCED_68_;
var 0..328: X_INTRODUCED_69_;
var 0..328: X_INTRODUCED_70_;
var 0..328: X_INTRODUCED_71_;
var 0..328: X_INTRODUCED_72_;
var 0..328: X_INTRODUCED_73_;
var 0..328: X_INTRODUCED_74_;
var 0..328: X_INTRODUCED_75_;
var 0..329: Objective:: output_var;
array [1..60] of var int: Start:: output_array([1..60]) = [X_INTRODUCED_16_,X_INTRODUCED_17_,X_INTRODUCED_18_,X_INTRODUCED_19_,X_INTRODUCED_20_,X_INTRODUCED_21_,X_INTRODUCED_22_,X_INTRODUCED_23_,X_INTRODUCED_24_,X_INTRODUCED_25_,X_INTRODUCED_26_,X_INTRODUCED_27_,X_INTRODUCED_28_,X_INTRODUCED_29_,X_INTRODUCED_30_,X_INTRODUCED_31_,X_INTRODUCED_32_,X_INTRODUCED_33_,X_INTRODUCED_34_,X_INTRODUCED_35_,X_INTRODUCED_36_,X_INTRODUCED_37_,X_INTRODUCED_38_,X_INTRODUCED_39_,X_INTRODUCED_40_,X_INTRODUCED_41_,X_INTRODUCED_42_,X_INTRODUCED_43_,X_INTRODUCED_44_,X_INTRODUCED_45_,X_INTRODUCED_46_,X_INTRODUCED_47_,X_INTRODUCED_48_,X_INTRODUCED_49_,X_INTRODUCED_50_,X_INTRODUCED_51_,X_INTRODUCED_52_,X_INTRODUCED_53_,X_INTRODUCED_54_,X_INTRODUCED_55_,X_INTRODUCED_56_,X_INTRODUCED_57_,X_INTRODUCED_58_,X_INTRODUCED_59_,X_INTRODUCED_60_,X_INTRODUCED_61_,X_INTRODUCED_62_,X_INTRODUCED_63_,X_INTRODUCED_64_,X_INTRODUCED_65_,X_INTRODUCED_66_,X_INTRODUCED_67_,X_INTRODUCED_68_,X_INTRODUCED_69_,X_INTRODUCED_70_,X_INTRODUCED_71_,X_INTRODUCED_72_,X_INTRODUCED_73_,X_INTRODUCED_74_,X_INTRODUCED_75_];
array [1..60] of var int: X_INTRODUCED_141_ ::var_is_introduced  = [X_INTRODUCED_16_,X_INTRODUCED_17_,X_INTRODUCED_18_,X_INTRODUCED_19_,X_INTRODUCED_20_,X_INTRODUCED_21_,X_INTRODUCED_22_,X_INTRODUCED_23_,X_INTRODUCED_24_,X_INTRODUCED_25_,X_INTRODUCED_26_,X_INTRODUCED_27_,X_INTRODUCED_28_,X_INTRODUCED_29_,X_INTRODUCED_30_,X_INTRODUCED_31_,X_INTRODUCED_32_,X_INTRODUCED_33_,X_INTRODUCED_34_,X_INTRODUCED_35_,X_INTRODUCED_36_,X_INTRODUCED_37_,X_INTRODUCED_38_,X_INTRODUCED_39_,X_INTRODUCED_40_,X_INTRODUCED_41_,X_INTRODUCED_42_,X_INTRODUCED_43_,X_INTRODUCED_44_,X_INTRODUCED_45_,X_INTRODUCED_46_,X_INTRODUCED_47_,X_INTRODUCED_48_,X_INTRODUCED_49_,X_INTRODUCED_50_,X_INTRODUCED_51_,X_INTRODUCED_52_,X_INTRODUCED_53_,X_INTRODUCED_54_,X_INTRODUCED_55_,X_INTRODUCED_56_,X_INTRODUCED_57_,X_INTRODUCED_58_,X_INTRODUCED_59_,X_INTRODUCED_60_,X_INTRODUCED_61_,X_INTRODUCED_62_,X_INTRODUCED_63_,X_INTRODUCED_64_,X_INTRODUCED_65_,X_INTRODUCED_66_,X_INTRODUCED_67_,X_INTRODUCED_68_,X_INTRODUCED_69_,X_INTRODUCED_70_,X_INTRODUCED_71_,X_INTRODUCED_72_,X_INTRODUCED_73_,X_INTRODUCED_74_,X_INTRODUCED_75_];
array [1..61] of var int: X_INTRODUCED_149_ ::var_is_introduced  = [X_INTRODUCED_16_,X_INTRODUCED_17_,X_INTRODUCED_18_,X_INTRODUCED_19_,X_INTRODUCED_20_,X_INTRODUCED_21_,X_INTRODUCED_22_,X_INTRODUCED_23_,X_INTRODUCED_24_,X_INTRODUCED_25_,X_INTRODUCED_26_,X_INTRODUCED_27_,X_INTRODUCED_28_,X_INTRODUCED_29_,X_INTRODUCED_30_,X_INTRODUCED_31_,X_INTRODUCED_32_,X_INTRODUCED_33_,X_INTRODUCED_34_,X_INTRODUCED_35_,X_INTRODUCED_36_,X_INTRODUCED_37_,X_INTRODUCED_38_,X_INTRODUCED_39_,X_INTRODUCED_40_,X_INTRODUCED_41_,X_INTRODUCED_42_,X_INTRODUCED_43_,X_INTRODUCED_44_,X_INTRODUCED_45_,X_INTRODUCED_46_,X_INTRODUCED_47_,X_INTRODUCED_48_,X_INTRODUCED_49_,X_INTRODUCED_50_,X_INTRODUCED_51_,X_INTRODUCED_52_,X_INTRODUCED_53_,X_INTRODUCED_54_,X_INTRODUCED_55_,X_INTRODUCED_56_,X_INTRODUCED_57_,X_INTRODUCED_58_,X_INTRODUCED_59_,X_INTRODUCED_60_,X_INTRODUCED_61_,X_INTRODUCED_62_,X_INTRODUCED_63_,X_INTRODUCED_64_,X_INTRODUCED_65_,X_INTRODUCED_66_,X_INTRODUCED_67_,X_INTRODUCED_68_,X_INTRODUCED_69_,X_INTRODUCED_70_,X_INTRODUCED_71_,X_INTRODUCED_72_,X_INTRODUCED_73_,X_INTRODUCED_74_,X_INTRODUCED_75_,Objective];
constraint int_lin_le(X_INTRODUCED_79_,[X_INTRODUCED_16_,X_INTRODUCED_24_],-6);
constraint int_lin_le(X_INTRODUCED_79_,[X_INTRODUCED_16_,X_INTRODUCED_40_],-6);
constraint int_lin_le(X_INTRODUCED_79_,[X_INTRODUCED_16_,X_INTRODUCED_63_],-6);
constraint int_lin_le(X_INTRODUCED_79_,[X_INTRODUCED_17_,X_INTRODUCED_19_],-9);
constraint int_lin_le(X_INTRODUCED_79_,[X_INTRODUCED_17_,X_INTRODUCED_20_],-9);
constraint int_lin_le(X_INTRODUCED_79_,[X_INTRODUCED_17_,X_INTRODUCED_31_],-9);
constraint int_lin_le(X_INTRODUCED_79_,[X_INTRODUCED_18_,X_INTRODUCED_20_],-8);
constraint int_lin_le(X_INTRODUCED_79_,[X_INTRODUCED_18_,X_INTRODUCED_22_],-8);
constraint int_lin_le(X_INTRODUCED_79_,[X_INTRODUCED_18_,X_INTRODUCED_40_],-8);
constraint int_lin_le(X_INTRODUCED_79_,[X_INTRODUCED_19_,X_INTRODUCED_21_],-10);
constraint int_lin_le(X_INTRODUCED_79_,[X_INTRODUCED_19_,X_INTRODUCED_36_],-10);
constraint int_lin_le(X_INTRODUCED_79_,[X_INTRODUCED_19_,X_INTRODUCED_53_],-10);
constraint int_lin_le(X_INTRODUCED_79_,[X_INTRODUCED_20_,X_INTRODUCED_27_],-2);
constraint int_lin_le(X_INTRODUCED_79_,[X_INTRODUCED_20_,X_INTRODUCED_29_],-2);
constraint int_lin_le(X_INTRODUCED_79_,[X_INTRODUCED_20_,X_INTRODUCED_48_],-2);
constraint int_lin_le(X_INTRODUCED_79_,[X_INTRODUCED_21_,X_INTRODUCED_48_],-4);
constraint int_lin_le(X_INTRODUCED_79_,[X_INTRODUCED_22_,X_INTRODUCED_23_],-2);
constraint int_lin_le(X_INTRODUCED_79_,[X_INTRODUCED_22_,X_INTRODUCED_27_],-2);
constraint int_lin_le(X_INTRODUCED_79_,[X_INTRODUCED_22_,X_INTRODUCED_64_],-2);
constraint int_lin_le(X_INTRODUCED_79_,[X_INTRODUCED_23_,X_INTRODUCED_25_],-1);
constraint int_lin_le(X_INTRODUCED_79_,[X_INTRODUCED_23_,X_INTRODUCED_29_],-1);
constraint int_lin_le(X_INTRODUCED_79_,[X_INTRODUCED_23_,X_INTRODUCED_34_],-1);
constraint int_lin_le(X_INTRODUCED_79_,[X_INTRODUCED_24_,X_INTRODUCED_47_],-7);
constraint int_lin_le(X_INTRODUCED_79_,[X_INTRODUCED_24_,X_INTRODUCED_55_],-7);
constraint int_lin_le(X_INTRODUCED_79_,[X_INTRODUCED_24_,X_INTRODUCED_61_],-7);
constraint int_lin_le(X_INTRODUCED_79_,[X_INTRODUCED_25_,X_INTRODUCED_26_],-7);
constraint int_lin_le(X_INTRODUCED_79_,[X_INTRODUCED_25_,X_INTRODUCED_44_],-7);
constraint int_lin_le(X_INTRODUCED_79_,[X_INTRODUCED_25_,X_INTRODUCED_57_],-7);
constraint int_lin_le(X_INTRODUCED_79_,[X_INTRODUCED_26_,X_INTRODUCED_28_],-9);
constraint int_lin_le(X_INTRODUCED_79_,[X_INTRODUCED_26_,X_INTRODUCED_33_],-9);
constraint int_lin_le(X_INTRODUCED_79_,[X_INTRODUCED_26_,X_INTRODUCED_49_],-9);
constraint int_lin_le(X_INTRODUCED_79_,[X_INTRODUCED_27_,X_INTRODUCED_30_],-7);
constraint int_lin_le(X_INTRODUCED_79_,[X_INTRODUCED_27_,X_INTRODUCED_32_],-7);
constraint int_lin_le(X_INTRODUCED_79_,[X_INTRODUCED_27_,X_INTRODUCED_33_],-7);
constraint int_lin_le(X_INTRODUCED_79_,[X_INTRODUCED_28_,X_INTRODUCED_50_],-9);
constraint int_lin_le(X_INTRODUCED_79_,[X_INTRODUCED_28_,X_INTRODUCED_56_],-9);
constraint int_lin_le(X_INTRODUCED_79_,[X_INTRODUCED_28_,X_INTRODUCED_67_],-9);
constraint int_lin_le(X_INTRODUCED_79_,[X_INTRODUCED_29_,X_INTRODUCED_41_],-8);
constraint int_lin_le(X_INTRODUCED_79_,[X_INTRODUCED_29_,X_INTRODUCED_60_],-8);
constraint int_lin_le(X_INTRODUCED_79_,[X_INTRODUCED_29_,X_INTRODUCED_67_],-8);
constraint int_lin_le(X_INTRODUCED_79_,[X_INTRODUCED_30_,X_INTRODUCED_37_],-4);
constraint int_lin_le(X_INTRODUCED_79_,[X_INTRODUCED_30_,X_INTRODUCED_56_],-4);
constraint int_lin_le(X_INTRODUCED_79_,[X_INTRODUCED_30_,X_INTRODUCED_60_],-4);
constraint int_lin_le(X_INTRODUCED_79_,[X_INTRODUCED_31_,X_INTRODUCED_34_],-8);
constraint int_lin_le(X_INTRODUCED_79_,[X_INTRODUCED_31_,X_INTRODUCED_39_],-8);
constraint int_lin_le(X_INTRODUCED_79_,[X_INTRODUCED_31_,X_INTRODUCED_64_],-8);
constraint int_lin_le(X_INTRODUCED_79_,[X_INTRODUCED_32_,X_INTRODUCED_35_],-1);
constraint int_lin_le(X_INTRODUCED_79_,[X_INTRODUCED_32_,X_INTRODUCED_41_],-1);
constraint int_lin_le(X_INTRODUCED_79_,[X_INTRODUCED_32_,X_INTRODUCED_71_],-1);
constraint int_lin_le(X_INTRODUCED_79_,[X_INTRODUCED_33_,X_INTRODUCED_45_],-7);
constraint int_lin_le(X_INTRODUCED_79_,[X_INTRODUCED_33_,X_INTRODUCED_47_],-7);
constraint int_lin_le(X_INTRODUCED_79_,[X_INTRODUCED_33_,X_INTRODUCED_63_],-7);
constraint int_lin_le(X_INTRODUCED_79_,[X_INTRODUCED_34_,X_INTRODUCED_50_],-10);
constraint int_lin_le(X_INTRODUCED_79_,[X_INTRODUCED_34_,X_INTRODUCED_52_],-10);
constraint int_lin_le(X_INTRODUCED_79_,[X_INTRODUCED_34_,X_INTRODUCED_62_],-10);
constraint int_lin_le(X_INTRODUCED_79_,[X_INTRODUCED_35_,X_INTRODUCED_38_],-1);
constraint int_lin_le(X_INTRODUCED_79_,[X_INTRODUCED_35_,X_INTRODUCED_42_],-1);
constraint int_lin_le(X_INTRODUCED_79_,[X_INTRODUCED_35_,X_INTRODUCED_49_],-1);
constraint int_lin_le(X_INTRODUCED_79_,[X_INTRODUCED_36_,X_INTRODUCED_48_],-3);
constraint int_lin_le(X_INTRODUCED_79_,[X_INTRODUCED_36_,X_INTRODUCED_51_],-3);
constraint int_lin_le(X_INTRODUCED_79_,[X_INTRODUCED_36_,X_INTRODUCED_72_],-3);
constraint int_lin_le(X_INTRODUCED_79_,[X_INTRODUCED_37_,X_INTRODUCED_45_],-2);
constraint int_lin_le(X_INTRODUCED_79_,[X_INTRODUCED_37_,X_INTRODUCED_53_],-2);
constraint int_lin_le(X_INTRODUCED_79_,[X_INTRODUCED_37_,X_INTRODUCED_57_],-2);
constraint int_lin_le(X_INTRODUCED_79_,[X_INTRODUCED_38_,X_INTRODUCED_43_],-7);
constraint int_lin_le(X_INTRODUCED_79_,[X_INTRODUCED_38_,X_INTRODUCED_45_],-7);
constraint int_lin_le(X_INTRODUCED_79_,[X_INTRODUCED_38_,X_INTRODUCED_51_],-7);
constraint int_lin_le(X_INTRODUCED_79_,[X_INTRODUCED_39_,X_INTRODUCED_40_],-4);
constraint int_lin_le(X_INTRODUCED_79_,[X_INTRODUCED_39_,X_INTRODUCED_44_],-4);
constraint int_lin_le(X_INTRODUCED_79_,[X_INTRODUCED_39_,X_INTRODUCED_49_],-4);
constraint int_lin_le(X_INTRODUCED_79_,[X_INTRODUCED_40_,X_INTRODUCED_52_],-7);
constraint int_lin_le(X_INTRODUCED_79_,[X_INTRODUCED_40_,X_INTRODUCED_56_],-7);
constraint int_lin_le(X_INTRODUCED_79_,[X_INTRODUCED_40_,X_INTRODUCED_61_],-7);
constraint int_lin_le(X_INTRODUCED_79_,[X_INTRODUCED_41_,X_INTRODUCED_52_],-10);
constraint int_lin_le(X_INTRODUCED_79_,[X_INTRODUCED_42_,X_INTRODUCED_43_],-10);
constraint int_lin_le(X_INTRODUCED_79_,[X_INTRODUCED_42_,X_INTRODUCED_47_],-10);
constraint int_lin_le(X_INTRODUCED_79_,[X_INTRODUCED_42_,X_INTRODUCED_51_],-10);
constraint int_lin_le(X_INTRODUCED_79_,[X_INTRODUCED_43_,X_INTRODUCED_44_],-6);
constraint int_lin_le(X_INTRODUCED_79_,[X_INTRODUCED_44_,X_INTRODUCED_46_],-5);
constraint int_lin_le(X_INTRODUCED_79_,[X_INTRODUCED_44_,X_INTRODUCED_66_],-5);
constraint int_lin_le(X_INTRODUCED_79_,[X_INTRODUCED_45_,X_INTRODUCED_46_],-3);
constraint int_lin_le(X_INTRODUCED_79_,[X_INTRODUCED_45_,X_INTRODUCED_50_],-3);
constraint int_lin_le(X_INTRODUCED_79_,[X_INTRODUCED_45_,X_INTRODUCED_59_],-3);
constraint int_lin_le(X_INTRODUCED_79_,[X_INTRODUCED_46_,X_INTRODUCED_58_],-1);
constraint int_lin_le(X_INTRODUCED_79_,[X_INTRODUCED_46_,X_INTRODUCED_70_],-1);
constraint int_lin_le(X_INTRODUCED_79_,[X_INTRODUCED_47_,X_INTRODUCED_53_],-2);
constraint int_lin_le(X_INTRODUCED_79_,[X_INTRODUCED_48_,X_INTRODUCED_62_],-7);
constraint int_lin_le(X_INTRODUCED_79_,[X_INTRODUCED_48_,X_INTRODUCED_65_],-7);
constraint int_lin_le(X_INTRODUCED_79_,[X_INTRODUCED_49_,X_INTRODUCED_54_],-3);
constraint int_lin_le(X_INTRODUCED_79_,[X_INTRODUCED_49_,X_INTRODUCED_61_],-3);
constraint int_lin_le(X_INTRODUCED_79_,[X_INTRODUCED_49_,X_INTRODUCED_63_],-3);
constraint int_lin_le(X_INTRODUCED_79_,[X_INTRODUCED_50_,X_INTRODUCED_65_],-3);
constraint int_lin_le(X_INTRODUCED_79_,[X_INTRODUCED_51_,X_INTRODUCED_54_],-4);
constraint int_lin_le(X_INTRODUCED_79_,[X_INTRODUCED_51_,X_INTRODUCED_59_],-4);
constraint int_lin_le(X_INTRODUCED_79_,[X_INTRODUCED_51_,X_INTRODUCED_74_],-4);
constraint int_lin_le(X_INTRODUCED_79_,[X_INTRODUCED_52_,X_INTRODUCED_57_],-8);
constraint int_lin_le(X_INTRODUCED_79_,[X_INTRODUCED_52_,X_INTRODUCED_58_],-8);
constraint int_lin_le(X_INTRODUCED_79_,[X_INTRODUCED_52_,X_INTRODUCED_69_],-8);
constraint int_lin_le(X_INTRODUCED_79_,[X_INTRODUCED_53_,X_INTRODUCED_58_],-1);
constraint int_lin_le(X_INTRODUCED_79_,[X_INTRODUCED_53_,X_INTRODUCED_69_],-1);
constraint int_lin_le(X_INTRODUCED_79_,[X_INTRODUCED_54_,X_INTRODUCED_60_],-9);
constraint int_lin_le(X_INTRODUCED_79_,[X_INTRODUCED_55_,X_INTRODUCED_64_],-8);
constraint int_lin_le(X_INTRODUCED_79_,[X_INTRODUCED_55_,X_INTRODUCED_66_],-8);
constraint int_lin_le(X_INTRODUCED_79_,[X_INTRODUCED_55_,X_INTRODUCED_71_],-8);
constraint int_lin_le(X_INTRODUCED_79_,[X_INTRODUCED_56_,X_INTRODUCED_59_],-7);
constraint int_lin_le(X_INTRODUCED_79_,[X_INTRODUCED_56_,X_INTRODUCED_71_],-7);
constraint int_lin_le(X_INTRODUCED_79_,[X_INTRODUCED_56_,X_INTRODUCED_75_],-7);
constraint int_lin_le(X_INTRODUCED_79_,[X_INTRODUCED_57_,X_INTRODUCED_70_],-2);
constraint int_lin_le(X_INTRODUCED_79_,[X_INTRODUCED_57_,X_INTRODUCED_73_],-2);
constraint int_lin_le(X_INTRODUCED_79_,[X_INTRODUCED_58_,X_INTRODUCED_74_],-5);
constraint int_lin_le(X_INTRODUCED_79_,[X_INTRODUCED_59_,X_INTRODUCED_62_],-10);
constraint int_lin_le(X_INTRODUCED_79_,[X_INTRODUCED_60_,X_INTRODUCED_65_],-10);
constraint int_lin_le(X_INTRODUCED_79_,[X_INTRODUCED_61_,X_INTRODUCED_68_],-3);
constraint int_lin_le(X_INTRODUCED_79_,[X_INTRODUCED_62_,X_INTRODUCED_73_],-2);
constraint int_lin_le(X_INTRODUCED_79_,[X_INTRODUCED_63_,X_INTRODUCED_68_],-4);
constraint int_lin_le(X_INTRODUCED_79_,[X_INTRODUCED_64_,X_INTRODUCED_75_],-1);
constraint int_lin_le(X_INTRODUCED_79_,[X_INTRODUCED_65_,X_INTRODUCED_75_],-4);
constraint int_lin_le(X_INTRODUCED_79_,[X_INTRODUCED_66_,X_INTRODUCED_67_],-5);
constraint int_lin_le(X_INTRODUCED_79_,[X_INTRODUCED_67_,X_INTRODUCED_68_],-5);
constraint int_lin_le(X_INTRODUCED_79_,[X_INTRODUCED_67_,X_INTRODUCED_69_],-5);
constraint int_lin_le(X_INTRODUCED_79_,[X_INTRODUCED_68_,X_INTRODUCED_72_],-9);
constraint int_lin_le(X_INTRODUCED_79_,[X_INTRODUCED_69_,X_INTRODUCED_70_],-5);
constraint int_lin_le(X_INTRODUCED_79_,[X_INTRODUCED_70_,X_INTRODUCED_72_],-2);
constraint int_lin_le(X_INTRODUCED_79_,[X_INTRODUCED_71_,X_INTRODUCED_73_],-4);
constraint int_lin_le(X_INTRODUCED_79_,[X_INTRODUCED_72_,X_INTRODUCED_74_],-6);
constraint pumpkin_cumulative(Start,X_INTRODUCED_139_,X_INTRODUCED_138_,35);
constraint pumpkin_cumulative(X_INTRODUCED_141_,X_INTRODUCED_139_,X_INTRODUCED_140_,35);
constraint pumpkin_cumulative(X_INTRODUCED_141_,X_INTRODUCED_139_,X_INTRODUCED_142_,34);
constraint pumpkin_cumulative(X_INTRODUCED_141_,X_INTRODUCED_139_,X_INTRODUCED_143_,32);
constraint int_lin_le(X_INTRODUCED_146_,[X_INTRODUCED_73_,Objective],-10);
constraint int_lin_le(X_INTRODUCED_146_,[X_INTRODUCED_74_,Objective],-5);
constraint int_lin_le(X_INTRODUCED_146_,[X_INTRODUCED_75_,Objective],-7);
solve :: int_search(X_INTRODUCED_149_,smallest,indomain_min,complete) minimize Objective;
